% Archivo de datos generado automáticamente
% MinExt - Minimización del Extremismo

n = 10;
m = 5;

% Distribución inicial de personas por opinión
p = [3, 1, 3, 0, 3];

% Valores de extremismo por opinión
ext = [0.311, 0.868, 0.302, 0.009, 0.066];

% Costos extra por mover hacia opinión inicialmente vacía
ce = [10.462, 4.317, 0.163, 8.509, 14.522];

% Matriz de costos de movimiento entre opiniones
c = array2d(1..m, 1..m, [0.0, 2.317, 4.001, 3.101, 2.747, 0.179, 0.0, 2.518, 0.635, 0.197, 3.265, 3.842, 0.0, 0.045, 2.656, 1.816, 0.912, 1.215, 0.0, 1.26, 1.867, 4.444, 3.127, 0.757, 0.0]);

% Restricciones de recursos
ct = 81.78;
maxM = 22;
